(set-info :source |printed by MathSAT|)
(declare-fun |!{$(in_main#0)<&array>}| () Int)
(declare-fun |!{$(in_main#0)<&array>}.next| () Int)
(declare-fun |!{$(in_main#0)<k>}| () Int)
(declare-fun |!{$(in_main#0)<k>}.next| () Int)
(declare-fun |!{$(in_main#0)<k#1>}| () Int)
(declare-fun |!{$(in_main#0)<k#1>}.next| () Int)
(declare-fun |!{%memaddr}| () Int)
(declare-fun |!{%memaddr}.next| () Int)
(declare-fun |!{%mem.0}| () (Array Int Int))
(declare-fun |!{%mem.0}.next| () (Array Int Int))
(declare-fun |!{$(in_main#0)<N>}| () Int)
(declare-fun |!{$(in_main#0)<N>}.next| () Int)
(declare-fun |!{$(in_main#0)<argmin>}| () Int)
(declare-fun |!{$(in_main#0)<argmin>}.next| () Int)
(declare-fun |!{$(in_main#0)<$(in___VERIFIER_nondet_int#1)<h#<__VERIFIER_nondet_int.return>>>}| () Int)
(declare-fun |!{$(in_main#0)<$(in___VERIFIER_nondet_int#3)<h#<__VERIFIER_nondet_int.return>>>}| () Int)
(declare-fun |!{$(in_main#0)<$(in_rec_array_argmin_left#4)<$temp.1>>}| () Int)
(declare-fun |!{$(in_main#0)<$(in_rec_array_argmin_left#4)<argmin>>}| () Int)
(declare-fun |!{$(in_main#0)<$(in_rec_array_argmin_left#4)<$tmp>>}| () Int)
(declare-fun |!{$(in_main#0)<$(in_rec_array_argmin_left#4)<$(in_rec_array_argmin_right#0)<$temp.1>>>}| () Int)
(declare-fun |!{$(in_main#0)<$(in_rec_array_argmin_left#4)<$(in_rec_array_argmin_right#0)<argmin>>>}| () Int)
(declare-fun |!{$(in_main#0)<$(in_rec_array_argmin_left#4)<$(in_rec_array_argmin_right#0)<$tmp>>>}| () Int)
(declare-fun |!{$(in_main#0)<$(in_rec_array_argmin_left#4)<$(in_rec_array_argmin_right#0)<$(in_rec_array_argmin_left#0)<$temp.1>>>>}| () Int)
(declare-fun |!{$(in_main#0)<$(in_rec_array_argmin_left#4)<$(in_rec_array_argmin_right#0)<$(in_rec_array_argmin_left#0)<argmin>>>>}| () Int)
(declare-fun |!{$(in_main#0)<$(in_rec_array_argmin_left#4)<$(in_rec_array_argmin_right#0)<$(in_rec_array_argmin_left#0)<$tmp>>>>}| () Int)
(declare-fun |!{$(in_main#0)<$(in_rec_array_argmin_left#4)<$(in_rec_array_argmin_right#0)<$(in_rec_array_argmin_left#0)<$(in_rec_array_argmin_right#0)<$temp.1>>>>>}| () Int)
(declare-fun |!{$(in_main#0)<$(in_rec_array_argmin_left#4)<$(in_rec_array_argmin_right#0)<$(in_rec_array_argmin_left#0)<$(in_rec_array_argmin_right#0)<argmin>>>>>}| () Int)
(declare-fun |!{$(in_main#0)<$(in_rec_array_argmin_left#4)<$(in_rec_array_argmin_right#0)<$(in_rec_array_argmin_left#0)<$(in_rec_array_argmin_right#0)<$tmp>>>>>}| () Int)
(declare-fun !pc () Int)
(declare-fun !pc.next () Int)
(declare-fun |%{$(in_main#0)<argmin>}#1| () Int)
(declare-fun |%{$(in_main#0)<k#1>}#1| () Int)
(declare-fun rec_array_argmin_left<0> (Int Int Int Int) Int)
(declare-fun |%{$(in_main#0)<$(in_rec_array_argmin_left#4)<$(in_rec_array_argmin_right#0)<$(in_rec_array_argmin_left#0)<$(in_rec_array_argmin_right#0)<rec_array_argmin_right.return>>>>>}#3| () Int)
(declare-fun |%{$(in_main#0)<$(in_rec_array_argmin_left#4)<$(in_rec_array_argmin_right#0)<$(in_rec_array_argmin_left#0)<$(in_rec_array_argmin_right#0)<$temp.1>>>>>}#3| () Int)
(declare-fun |%{$(in_main#0)<$(in_rec_array_argmin_left#4)<$(in_rec_array_argmin_right#0)<$(in_rec_array_argmin_left#0)<$(in_rec_array_argmin_right#0)<argmin>>>>>}#3| () Int)
(declare-fun |%{$(in_main#0)<$(in_rec_array_argmin_left#4)<$(in_rec_array_argmin_right#0)<$(in_rec_array_argmin_left#0)<$(in_rec_array_argmin_right#0)<$tmp>>>>>}#3| () Int)
(declare-fun |%{$(in_main#0)<$(in_rec_array_argmin_left#4)<$(in_rec_array_argmin_right#0)<$(in_rec_array_argmin_left#0)<rec_array_argmin_left.return>>>>}#3| () Int)
(declare-fun |%{$(in_main#0)<$(in_rec_array_argmin_left#4)<$(in_rec_array_argmin_right#0)<$(in_rec_array_argmin_left#0)<$temp.1>>>>}#3| () Int)
(declare-fun |%{$(in_main#0)<$(in_rec_array_argmin_left#4)<$(in_rec_array_argmin_right#0)<$(in_rec_array_argmin_left#0)<argmin>>>>}#3| () Int)
(declare-fun |%{$(in_main#0)<$(in_rec_array_argmin_left#4)<$(in_rec_array_argmin_right#0)<$(in_rec_array_argmin_left#0)<$tmp>>>>}#3| () Int)
(declare-fun |%{$(in_main#0)<$(in_rec_array_argmin_left#4)<$(in_rec_array_argmin_right#0)<rec_array_argmin_right.return>>>}#3| () Int)
(declare-fun |%{$(in_main#0)<$(in_rec_array_argmin_left#4)<$(in_rec_array_argmin_right#0)<$temp.1>>>}#3| () Int)
(declare-fun |%{$(in_main#0)<$(in_rec_array_argmin_left#4)<$(in_rec_array_argmin_right#0)<argmin>>>}#3| () Int)
(declare-fun |%{$(in_main#0)<$(in_rec_array_argmin_left#4)<$(in_rec_array_argmin_right#0)<$tmp>>>}#3| () Int)
(declare-fun |%{$(in_main#0)<$(in_rec_array_argmin_left#4)<rec_array_argmin_left.return>>}#3| () Int)
(declare-fun |%{$(in_main#0)<$(in_rec_array_argmin_left#4)<$temp.1>>}#3| () Int)
(declare-fun |%{$(in_main#0)<$(in_rec_array_argmin_left#4)<argmin>>}#3| () Int)
(declare-fun |%{$(in_main#0)<$(in_rec_array_argmin_left#4)<$tmp>>}#3| () Int)
(define-fun .def_77 () Int (! !pc :next !pc.next))
(define-fun .def_80 () Bool (! (= .def_77 2) :init true))
(define-fun .def_445 () Bool (= .def_77 49))
(define-fun .def_167 () Bool (= !pc.next 230))
(define-fun .def_448 () Bool (and .def_167 .def_445))
(define-fun .def_441 () Bool (= |!{$(in_main#0)<argmin>}.next| |%{$(in_main#0)<$(in_rec_array_argmin_left#4)<rec_array_argmin_left.return>>}#3|))
(define-fun .def_436 () Bool (= |!{$(in_main#0)<k#1>}.next| 0))
(define-fun .def_10 () Int (! |!{$(in_main#0)<k>}| :next |!{$(in_main#0)<k>}.next|))
(define-fun .def_130 () Bool (= .def_10 |!{$(in_main#0)<k>}.next|))
(define-fun .def_8 () Int (! |!{$(in_main#0)<&array>}| :next |!{$(in_main#0)<&array>}.next|))
(define-fun .def_128 () Bool (= .def_8 |!{$(in_main#0)<&array>}.next|))
(define-fun .def_142 () Bool (and .def_128 .def_130))
(define-fun .def_437 () Bool (and .def_142 .def_436))
(define-fun .def_14 () Int (! |!{%memaddr}| :next |!{%memaddr}.next|))
(define-fun .def_134 () Bool (= .def_14 |!{%memaddr}.next|))
(define-fun .def_438 () Bool (and .def_134 .def_437))
(define-fun .def_16 () (Array Int Int) (! |!{%mem.0}| :next |!{%mem.0}.next|))
(define-fun .def_104 () Bool (= .def_16 |!{%mem.0}.next|))
(define-fun .def_439 () Bool (and .def_104 .def_438))
(define-fun .def_18 () Int (! |!{$(in_main#0)<N>}| :next |!{$(in_main#0)<N>}.next|))
(define-fun .def_137 () Bool (= .def_18 |!{$(in_main#0)<N>}.next|))
(define-fun .def_440 () Bool (and .def_137 .def_439))
(define-fun .def_442 () Bool (and .def_440 .def_441))
(define-fun .def_418 () Bool (= |!{$(in_main#0)<$(in_rec_array_argmin_left#4)<$tmp>>}| |%{$(in_main#0)<$(in_rec_array_argmin_left#4)<$tmp>>}#3|))
(define-fun .def_412 () Bool (= |!{$(in_main#0)<$(in_rec_array_argmin_left#4)<argmin>>}| |%{$(in_main#0)<$(in_rec_array_argmin_left#4)<argmin>>}#3|))
(define-fun .def_406 () Bool (= |!{$(in_main#0)<$(in_rec_array_argmin_left#4)<$temp.1>>}| |%{$(in_main#0)<$(in_rec_array_argmin_left#4)<$temp.1>>}#3|))
(define-fun .def_189 () Bool (<= 1 .def_18))
(define-fun .def_186 () Bool (<= .def_18 1))
(define-fun .def_187 () Bool (not .def_186))
(define-fun .def_184 () Bool (<= .def_18 0))
(define-fun .def_185 () Bool (not .def_184))
(define-fun .def_188 () Bool (and .def_185 .def_187))
(define-fun .def_190 () Bool (and .def_188 .def_189))
(define-fun .def_402 () Bool (not .def_190))
(define-fun .def_408 () Bool (and .def_402 .def_406))
(define-fun .def_414 () Bool (and .def_408 .def_412))
(define-fun .def_420 () Bool (and .def_414 .def_418))
(define-fun .def_394 () Bool (= |%{$(in_main#0)<$(in_rec_array_argmin_left#4)<rec_array_argmin_left.return>>}#3| 0))
(define-fun .def_422 () Bool (and .def_394 .def_420))
(define-fun .def_419 () Bool (= |%{$(in_main#0)<$(in_rec_array_argmin_left#4)<$(in_rec_array_argmin_right#0)<rec_array_argmin_right.return>>>}#3| |%{$(in_main#0)<$(in_rec_array_argmin_left#4)<$tmp>>}#3|))
(define-fun .def_413 () Bool (= |%{$(in_main#0)<$(in_rec_array_argmin_left#4)<$(in_rec_array_argmin_right#0)<rec_array_argmin_right.return>>>}#3| |%{$(in_main#0)<$(in_rec_array_argmin_left#4)<argmin>>}#3|))
(define-fun .def_407 () Bool (= |%{$(in_main#0)<$(in_rec_array_argmin_left#4)<$(in_rec_array_argmin_right#0)<rec_array_argmin_right.return>>>}#3| |%{$(in_main#0)<$(in_rec_array_argmin_left#4)<$temp.1>>}#3|))
(define-fun .def_395 () Bool (= |%{$(in_main#0)<$(in_rec_array_argmin_left#4)<$(in_rec_array_argmin_right#0)<rec_array_argmin_right.return>>>}#3| |%{$(in_main#0)<$(in_rec_array_argmin_left#4)<rec_array_argmin_left.return>>}#3|))
(define-fun .def_381 () Int (select .def_16 .def_8))
(define-fun .def_382 () Int (+ .def_8 |%{$(in_main#0)<$(in_rec_array_argmin_left#4)<$(in_rec_array_argmin_right#0)<rec_array_argmin_right.return>>>}#3|))
(define-fun .def_383 () Int (select .def_16 .def_382))
(define-fun .def_384 () Bool (<= .def_383 .def_381))
(define-fun .def_397 () Bool (and .def_384 .def_395))
(define-fun .def_385 () Bool (not .def_384))
(define-fun .def_396 () Bool (and .def_385 .def_394))
(define-fun .def_398 () Bool (or .def_396 .def_397))
(define-fun .def_373 () Bool (= |!{$(in_main#0)<$(in_rec_array_argmin_left#4)<$(in_rec_array_argmin_right#0)<$tmp>>>}| |%{$(in_main#0)<$(in_rec_array_argmin_left#4)<$(in_rec_array_argmin_right#0)<$tmp>>>}#3|))
(define-fun .def_367 () Bool (= |!{$(in_main#0)<$(in_rec_array_argmin_left#4)<$(in_rec_array_argmin_right#0)<argmin>>>}| |%{$(in_main#0)<$(in_rec_array_argmin_left#4)<$(in_rec_array_argmin_right#0)<argmin>>>}#3|))
(define-fun .def_361 () Bool (= |!{$(in_main#0)<$(in_rec_array_argmin_left#4)<$(in_rec_array_argmin_right#0)<$temp.1>>>}| |%{$(in_main#0)<$(in_rec_array_argmin_left#4)<$(in_rec_array_argmin_right#0)<$temp.1>>>}#3|))
(define-fun .def_191 () Bool (<= 2 .def_18))
(define-fun .def_192 () Bool (and .def_187 .def_191))
(define-fun .def_356 () Bool (not .def_192))
(define-fun .def_363 () Bool (and .def_356 .def_361))
(define-fun .def_369 () Bool (and .def_363 .def_367))
(define-fun .def_375 () Bool (and .def_369 .def_373))
(define-fun .def_345 () Int (* (- 1) |%{$(in_main#0)<$(in_rec_array_argmin_left#4)<$(in_rec_array_argmin_right#0)<rec_array_argmin_right.return>>>}#3|))
(define-fun .def_346 () Int (+ .def_18 .def_345))
(define-fun .def_347 () Bool (= .def_346 1))
(define-fun .def_377 () Bool (and .def_347 .def_375))
(define-fun .def_374 () Bool (= |%{$(in_main#0)<$(in_rec_array_argmin_left#4)<$(in_rec_array_argmin_right#0)<$(in_rec_array_argmin_left#0)<rec_array_argmin_left.return>>>>}#3| |%{$(in_main#0)<$(in_rec_array_argmin_left#4)<$(in_rec_array_argmin_right#0)<$tmp>>>}#3|))
(define-fun .def_368 () Bool (= |%{$(in_main#0)<$(in_rec_array_argmin_left#4)<$(in_rec_array_argmin_right#0)<$(in_rec_array_argmin_left#0)<rec_array_argmin_left.return>>>>}#3| |%{$(in_main#0)<$(in_rec_array_argmin_left#4)<$(in_rec_array_argmin_right#0)<argmin>>>}#3|))
(define-fun .def_362 () Bool (= |%{$(in_main#0)<$(in_rec_array_argmin_left#4)<$(in_rec_array_argmin_right#0)<$(in_rec_array_argmin_left#0)<rec_array_argmin_left.return>>>>}#3| |%{$(in_main#0)<$(in_rec_array_argmin_left#4)<$(in_rec_array_argmin_right#0)<$temp.1>>>}#3|))
(define-fun .def_348 () Bool (= |%{$(in_main#0)<$(in_rec_array_argmin_left#4)<$(in_rec_array_argmin_right#0)<$(in_rec_array_argmin_left#0)<rec_array_argmin_left.return>>>>}#3| |%{$(in_main#0)<$(in_rec_array_argmin_left#4)<$(in_rec_array_argmin_right#0)<rec_array_argmin_right.return>>>}#3|))
(define-fun .def_208 () Int (+ .def_8 .def_18))
(define-fun .def_327 () Int (+ .def_208 (- 1)))
(define-fun .def_328 () Int (select .def_16 .def_327))
(define-fun .def_329 () Int (+ .def_8 |%{$(in_main#0)<$(in_rec_array_argmin_left#4)<$(in_rec_array_argmin_right#0)<$(in_rec_array_argmin_left#0)<rec_array_argmin_left.return>>>>}#3|))
(define-fun .def_330 () Int (select .def_16 .def_329))
(define-fun .def_331 () Bool (<= .def_330 .def_328))
(define-fun .def_350 () Bool (and .def_331 .def_348))
(define-fun .def_332 () Bool (not .def_331))
(define-fun .def_349 () Bool (and .def_332 .def_347))
(define-fun .def_351 () Bool (or .def_349 .def_350))
(define-fun .def_317 () Bool (= |!{$(in_main#0)<$(in_rec_array_argmin_left#4)<$(in_rec_array_argmin_right#0)<$(in_rec_array_argmin_left#0)<$tmp>>>>}| |%{$(in_main#0)<$(in_rec_array_argmin_left#4)<$(in_rec_array_argmin_right#0)<$(in_rec_array_argmin_left#0)<$tmp>>>>}#3|))
(define-fun .def_311 () Bool (= |!{$(in_main#0)<$(in_rec_array_argmin_left#4)<$(in_rec_array_argmin_right#0)<$(in_rec_array_argmin_left#0)<argmin>>>>}| |%{$(in_main#0)<$(in_rec_array_argmin_left#4)<$(in_rec_array_argmin_right#0)<$(in_rec_array_argmin_left#0)<argmin>>>>}#3|))
(define-fun .def_305 () Bool (= |!{$(in_main#0)<$(in_rec_array_argmin_left#4)<$(in_rec_array_argmin_right#0)<$(in_rec_array_argmin_left#0)<$temp.1>>>>}| |%{$(in_main#0)<$(in_rec_array_argmin_left#4)<$(in_rec_array_argmin_right#0)<$(in_rec_array_argmin_left#0)<$temp.1>>>>}#3|))
(define-fun .def_198 () Bool (<= 3 .def_18))
(define-fun .def_194 () Bool (<= .def_18 2))
(define-fun .def_195 () Bool (not .def_194))
(define-fun .def_196 () Bool (and .def_187 .def_195))
(define-fun .def_199 () Bool (and .def_196 .def_198))
(define-fun .def_299 () Bool (not .def_199))
(define-fun .def_307 () Bool (and .def_299 .def_305))
(define-fun .def_313 () Bool (and .def_307 .def_311))
(define-fun .def_319 () Bool (and .def_313 .def_317))
(define-fun .def_289 () Bool (= |%{$(in_main#0)<$(in_rec_array_argmin_left#4)<$(in_rec_array_argmin_right#0)<$(in_rec_array_argmin_left#0)<rec_array_argmin_left.return>>>>}#3| 1))
(define-fun .def_321 () Bool (and .def_289 .def_319))
(define-fun .def_318 () Bool (= |%{$(in_main#0)<$(in_rec_array_argmin_left#4)<$(in_rec_array_argmin_right#0)<$(in_rec_array_argmin_left#0)<$(in_rec_array_argmin_right#0)<rec_array_argmin_right.return>>>>>}#3| |%{$(in_main#0)<$(in_rec_array_argmin_left#4)<$(in_rec_array_argmin_right#0)<$(in_rec_array_argmin_left#0)<$tmp>>>>}#3|))
(define-fun .def_312 () Bool (= |%{$(in_main#0)<$(in_rec_array_argmin_left#4)<$(in_rec_array_argmin_right#0)<$(in_rec_array_argmin_left#0)<$(in_rec_array_argmin_right#0)<rec_array_argmin_right.return>>>>>}#3| |%{$(in_main#0)<$(in_rec_array_argmin_left#4)<$(in_rec_array_argmin_right#0)<$(in_rec_array_argmin_left#0)<argmin>>>>}#3|))
(define-fun .def_306 () Bool (= |%{$(in_main#0)<$(in_rec_array_argmin_left#4)<$(in_rec_array_argmin_right#0)<$(in_rec_array_argmin_left#0)<$(in_rec_array_argmin_right#0)<rec_array_argmin_right.return>>>>>}#3| |%{$(in_main#0)<$(in_rec_array_argmin_left#4)<$(in_rec_array_argmin_right#0)<$(in_rec_array_argmin_left#0)<$temp.1>>>>}#3|))
(define-fun .def_290 () Bool (= |%{$(in_main#0)<$(in_rec_array_argmin_left#4)<$(in_rec_array_argmin_right#0)<$(in_rec_array_argmin_left#0)<$(in_rec_array_argmin_right#0)<rec_array_argmin_right.return>>>>>}#3| |%{$(in_main#0)<$(in_rec_array_argmin_left#4)<$(in_rec_array_argmin_right#0)<$(in_rec_array_argmin_left#0)<rec_array_argmin_left.return>>>>}#3|))
(define-fun .def_271 () Int (+ .def_8 1))
(define-fun .def_272 () Int (select .def_16 .def_271))
(define-fun .def_273 () Int (+ .def_8 |%{$(in_main#0)<$(in_rec_array_argmin_left#4)<$(in_rec_array_argmin_right#0)<$(in_rec_array_argmin_left#0)<$(in_rec_array_argmin_right#0)<rec_array_argmin_right.return>>>>>}#3|))
(define-fun .def_274 () Int (select .def_16 .def_273))
(define-fun .def_275 () Bool (<= .def_274 .def_272))
(define-fun .def_292 () Bool (and .def_275 .def_290))
(define-fun .def_276 () Bool (not .def_275))
(define-fun .def_291 () Bool (and .def_276 .def_289))
(define-fun .def_293 () Bool (or .def_291 .def_292))
(define-fun .def_261 () Bool (= |!{$(in_main#0)<$(in_rec_array_argmin_left#4)<$(in_rec_array_argmin_right#0)<$(in_rec_array_argmin_left#0)<$(in_rec_array_argmin_right#0)<$tmp>>>>>}| |%{$(in_main#0)<$(in_rec_array_argmin_left#4)<$(in_rec_array_argmin_right#0)<$(in_rec_array_argmin_left#0)<$(in_rec_array_argmin_right#0)<$tmp>>>>>}#3|))
(define-fun .def_255 () Bool (= |!{$(in_main#0)<$(in_rec_array_argmin_left#4)<$(in_rec_array_argmin_right#0)<$(in_rec_array_argmin_left#0)<$(in_rec_array_argmin_right#0)<argmin>>>>>}| |%{$(in_main#0)<$(in_rec_array_argmin_left#4)<$(in_rec_array_argmin_right#0)<$(in_rec_array_argmin_left#0)<$(in_rec_array_argmin_right#0)<argmin>>>>>}#3|))
(define-fun .def_249 () Bool (= |!{$(in_main#0)<$(in_rec_array_argmin_left#4)<$(in_rec_array_argmin_right#0)<$(in_rec_array_argmin_left#0)<$(in_rec_array_argmin_right#0)<$temp.1>>>>>}| |%{$(in_main#0)<$(in_rec_array_argmin_left#4)<$(in_rec_array_argmin_right#0)<$(in_rec_array_argmin_left#0)<$(in_rec_array_argmin_right#0)<$temp.1>>>>>}#3|))
(define-fun .def_201 () Bool (<= 4 .def_18))
(define-fun .def_202 () Bool (and .def_195 .def_201))
(define-fun .def_242 () Bool (not .def_202))
(define-fun .def_251 () Bool (and .def_242 .def_249))
(define-fun .def_257 () Bool (and .def_251 .def_255))
(define-fun .def_263 () Bool (and .def_257 .def_261))
(define-fun .def_230 () Int (* (- 1) |%{$(in_main#0)<$(in_rec_array_argmin_left#4)<$(in_rec_array_argmin_right#0)<$(in_rec_array_argmin_left#0)<$(in_rec_array_argmin_right#0)<rec_array_argmin_right.return>>>>>}#3|))
(define-fun .def_231 () Int (+ .def_18 .def_230))
(define-fun .def_232 () Bool (= .def_231 2))
(define-fun .def_265 () Bool (and .def_232 .def_263))
(define-fun .def_205 () Int (+ .def_18 (- 3)))
(define-fun .def_206 () Int (rec_array_argmin_left<0> .def_8 2 .def_205 .def_18))
(define-fun .def_262 () Bool (= .def_206 |%{$(in_main#0)<$(in_rec_array_argmin_left#4)<$(in_rec_array_argmin_right#0)<$(in_rec_array_argmin_left#0)<$(in_rec_array_argmin_right#0)<$tmp>>>>>}#3|))
(define-fun .def_256 () Bool (= .def_206 |%{$(in_main#0)<$(in_rec_array_argmin_left#4)<$(in_rec_array_argmin_right#0)<$(in_rec_array_argmin_left#0)<$(in_rec_array_argmin_right#0)<argmin>>>>>}#3|))
(define-fun .def_250 () Bool (= .def_206 |%{$(in_main#0)<$(in_rec_array_argmin_left#4)<$(in_rec_array_argmin_right#0)<$(in_rec_array_argmin_left#0)<$(in_rec_array_argmin_right#0)<$temp.1>>>>>}#3|))
(define-fun .def_233 () Bool (= .def_206 |%{$(in_main#0)<$(in_rec_array_argmin_left#4)<$(in_rec_array_argmin_right#0)<$(in_rec_array_argmin_left#0)<$(in_rec_array_argmin_right#0)<rec_array_argmin_right.return>>>>>}#3|))
(define-fun .def_210 () Int (+ .def_208 (- 2)))
(define-fun .def_211 () Int (select .def_16 .def_210))
(define-fun .def_212 () Int (+ .def_8 .def_206))
(define-fun .def_213 () Int (select .def_16 .def_212))
(define-fun .def_214 () Bool (<= .def_213 .def_211))
(define-fun .def_235 () Bool (and .def_214 .def_233))
(define-fun .def_215 () Bool (not .def_214))
(define-fun .def_234 () Bool (and .def_215 .def_232))
(define-fun .def_236 () Bool (or .def_234 .def_235))
(define-fun .def_237 () Bool (and .def_202 .def_236))
(define-fun .def_252 () Bool (and .def_237 .def_250))
(define-fun .def_258 () Bool (and .def_252 .def_256))
(define-fun .def_264 () Bool (and .def_258 .def_262))
(define-fun .def_266 () Bool (or .def_264 .def_265))
(define-fun .def_294 () Bool (and .def_266 .def_293))
(define-fun .def_295 () Bool (and .def_199 .def_294))
(define-fun .def_308 () Bool (and .def_295 .def_306))
(define-fun .def_314 () Bool (and .def_308 .def_312))
(define-fun .def_320 () Bool (and .def_314 .def_318))
(define-fun .def_322 () Bool (or .def_320 .def_321))
(define-fun .def_352 () Bool (and .def_322 .def_351))
(define-fun .def_353 () Bool (and .def_192 .def_352))
(define-fun .def_364 () Bool (and .def_353 .def_362))
(define-fun .def_370 () Bool (and .def_364 .def_368))
(define-fun .def_376 () Bool (and .def_370 .def_374))
(define-fun .def_378 () Bool (or .def_376 .def_377))
(define-fun .def_399 () Bool (and .def_378 .def_398))
(define-fun .def_400 () Bool (and .def_190 .def_399))
(define-fun .def_409 () Bool (and .def_400 .def_407))
(define-fun .def_415 () Bool (and .def_409 .def_413))
(define-fun .def_421 () Bool (and .def_415 .def_419))
(define-fun .def_423 () Bool (or .def_421 .def_422))
(define-fun .def_443 () Bool (and .def_423 .def_442))
(define-fun .def_178 () Bool (<= .def_18 .def_10))
(define-fun .def_444 () Bool (and .def_178 .def_443))
(define-fun .def_449 () Bool (and .def_444 .def_448))
(define-fun .def_112 () Bool (= !pc.next 49))
(define-fun .def_446 () Bool (and .def_112 .def_445))
(define-fun .def_180 () Int (+ .def_8 .def_10))
(define-fun .def_181 () (Array Int Int) (store .def_16 .def_180 |!{$(in_main#0)<$(in___VERIFIER_nondet_int#3)<h#<__VERIFIER_nondet_int.return>>>}|))
(define-fun .def_431 () Bool (= |!{%mem.0}.next| .def_181))
(define-fun .def_425 () Int (* (- 1) |!{$(in_main#0)<k>}.next|))
(define-fun .def_426 () Int (+ .def_10 .def_425))
(define-fun .def_427 () Bool (= .def_426 (- 1)))
(define-fun .def_428 () Bool (and .def_128 .def_427))
(define-fun .def_12 () Int (! |!{$(in_main#0)<k#1>}| :next |!{$(in_main#0)<k#1>}.next|))
(define-fun .def_132 () Bool (= .def_12 |!{$(in_main#0)<k#1>}.next|))
(define-fun .def_429 () Bool (and .def_132 .def_428))
(define-fun .def_430 () Bool (and .def_134 .def_429))
(define-fun .def_432 () Bool (and .def_430 .def_431))
(define-fun .def_433 () Bool (and .def_137 .def_432))
(define-fun .def_20 () Int (! |!{$(in_main#0)<argmin>}| :next |!{$(in_main#0)<argmin>}.next|))
(define-fun .def_139 () Bool (= .def_20 |!{$(in_main#0)<argmin>}.next|))
(define-fun .def_434 () Bool (and .def_139 .def_433))
(define-fun .def_179 () Bool (not .def_178))
(define-fun .def_435 () Bool (and .def_179 .def_434))
(define-fun .def_447 () Bool (and .def_435 .def_446))
(define-fun .def_450 () Bool (or .def_447 .def_449))
(define-fun .def_171 () Bool (= !pc.next 0))
(define-fun .def_162 () Bool (= .def_77 230))
(define-fun .def_172 () Bool (and .def_162 .def_171))
(define-fun .def_115 () Bool (<= .def_18 .def_12))
(define-fun .def_154 () Bool (and .def_115 .def_128))
(define-fun .def_155 () Bool (and .def_130 .def_154))
(define-fun .def_156 () Bool (and .def_132 .def_155))
(define-fun .def_157 () Bool (and .def_134 .def_156))
(define-fun .def_158 () Bool (and .def_104 .def_157))
(define-fun .def_159 () Bool (and .def_137 .def_158))
(define-fun .def_160 () Bool (and .def_139 .def_159))
(define-fun .def_173 () Bool (and .def_160 .def_172))
(define-fun .def_168 () Bool (and .def_162 .def_167))
(define-fun .def_144 () Int (* (- 1) |!{$(in_main#0)<k#1>}.next|))
(define-fun .def_145 () Int (+ .def_12 .def_144))
(define-fun .def_146 () Bool (= .def_145 (- 1)))
(define-fun .def_147 () Bool (and .def_142 .def_146))
(define-fun .def_148 () Bool (and .def_134 .def_147))
(define-fun .def_149 () Bool (and .def_104 .def_148))
(define-fun .def_150 () Bool (and .def_137 .def_149))
(define-fun .def_151 () Bool (and .def_139 .def_150))
(define-fun .def_117 () Int (+ .def_8 .def_12))
(define-fun .def_118 () Int (select .def_16 .def_117))
(define-fun .def_119 () Int (+ .def_8 .def_20))
(define-fun .def_120 () Int (select .def_16 .def_119))
(define-fun .def_121 () Bool (<= .def_120 .def_118))
(define-fun .def_122 () Int (ite .def_121 1 0))
(define-fun .def_123 () Bool (= .def_122 0))
(define-fun .def_124 () Bool (not .def_123))
(define-fun .def_152 () Bool (and .def_124 .def_151))
(define-fun .def_116 () Bool (not .def_115))
(define-fun .def_153 () Bool (and .def_116 .def_152))
(define-fun .def_169 () Bool (and .def_153 .def_168))
(define-fun .def_164 () Bool (= !pc.next 250))
(define-fun .def_165 () Bool (and .def_162 .def_164))
(define-fun .def_129 () Bool (and .def_123 .def_128))
(define-fun .def_131 () Bool (and .def_129 .def_130))
(define-fun .def_133 () Bool (and .def_131 .def_132))
(define-fun .def_135 () Bool (and .def_133 .def_134))
(define-fun .def_136 () Bool (and .def_104 .def_135))
(define-fun .def_138 () Bool (and .def_136 .def_137))
(define-fun .def_140 () Bool (and .def_138 .def_139))
(define-fun .def_141 () Bool (and .def_116 .def_140))
(define-fun .def_166 () Bool (and .def_141 .def_165))
(define-fun .def_170 () Bool (or .def_166 .def_169))
(define-fun .def_174 () Bool (or .def_170 .def_173))
(define-fun .def_113 () Bool (and .def_80 .def_112))
(define-fun .def_108 () Bool (= |!{$(in_main#0)<argmin>}.next| |%{$(in_main#0)<argmin>}#1|))
(define-fun .def_106 () Bool (= |!{$(in_main#0)<N>}.next| |!{$(in_main#0)<$(in___VERIFIER_nondet_int#1)<h#<__VERIFIER_nondet_int.return>>>}|))
(define-fun .def_102 () Bool (= |!{%memaddr}.next| 2))
(define-fun .def_100 () Bool (= |!{$(in_main#0)<k#1>}.next| |%{$(in_main#0)<k#1>}#1|))
(define-fun .def_98 () Bool (= |!{$(in_main#0)<k>}.next| 0))
(define-fun .def_97 () Bool (= |!{$(in_main#0)<&array>}.next| 1))
(define-fun .def_99 () Bool (and .def_97 .def_98))
(define-fun .def_101 () Bool (and .def_99 .def_100))
(define-fun .def_103 () Bool (and .def_101 .def_102))
(define-fun .def_105 () Bool (and .def_103 .def_104))
(define-fun .def_107 () Bool (and .def_105 .def_106))
(define-fun .def_109 () Bool (and .def_107 .def_108))
(define-fun .def_92 () Bool (<= |!{$(in_main#0)<$(in___VERIFIER_nondet_int#1)<h#<__VERIFIER_nondet_int.return>>>}| 0))
(define-fun .def_93 () Bool (not .def_92))
(define-fun .def_94 () Int (ite .def_93 1 0))
(define-fun .def_95 () Bool (= .def_94 0))
(define-fun .def_96 () Bool (not .def_95))
(define-fun .def_110 () Bool (and .def_96 .def_109))
(define-fun .def_114 () Bool (and .def_110 .def_113))
(define-fun .def_175 () Bool (or .def_114 .def_174))
(define-fun .def_451 () Bool (! (or .def_175 .def_450) :trans true))
(define-fun .def_176 () Bool (= .def_77 250))
(define-fun .def_452 () Bool (! (not .def_176) :invar-property 0 :invar-property-name ||))
(assert true)
